p cnf 1455
-21 -455
-22 -458
-23 -461
-24 -464
-25 -467
-26 -470
-27 -473
-28 -476
-29 -479
-30 -482
-31 -485
-32 -488
-33 -491
-34 -494
-35 -497
-36 -500
-37 -503
-38 -506
-39 -509
-40 -512
-41 513
-42 514
-43 515
-44 516
-45 517
-46 518
-47 519
-48 520
-49 521
-50 522
-51 523
-52 524
-53 -22
-53 -23
22 23 53
-54 -24
-54 -25
24 25 54
-55 -26
-55 -27
26 27 55
-56 -28
-56 -29
28 29 56
-57 -30
-57 -31
30 31 57
-58 -32
-58 -33
32 33 58
-59 -34
-59 -35
34 35 59
-60 -36
-60 -37
36 37 60
-61 -38
-61 -39
38 39 61
-62 -40
-62 -41
40 41 62
-63 -42
-63 -43
42 43 63
-64 -44
-64 -45
44 45 64
-65 -46
-65 -47
46 47 65
-66 -48
-66 -49
48 49 66
-67 -50
-67 -51
50 51 67
-68 53
-68 54
-53 -54 68
-69 55
-69 56
-55 -56 69
-70 57
-70 58
-57 -58 70
-71 59
-71 60
-59 -60 71
-72 61
-72 62
-61 -62 72
-73 63
-73 64
-63 -64 73
-74 65
-74 66
-65 -66 74
-75 -52
-75 67
52 -67 75
-76 68
-76 69
-68 -69 76
-77 70
-77 71
-70 -71 77
-78 72
-78 73
-72 -73 78
-79 74
-79 75
-74 -75 79
-80 76
-80 77
-76 -77 80
-81 78
-81 79
-78 -79 81
-82 80
-82 81
-80 -81 82
-83 -21
-83 22
21 -22 83
-84 21
-84 -22
-21 22 84
-85 -83
-85 -84
83 84 85
-86 21
-86 22
-21 -22 86
-87 -21
-87 -85
21 85 87
-88 21
-88 85
-21 -85 88
-89 -87
-89 -88
87 88 89
-90 21
-90 -85
-21 85 90
-91 -86
-91 -90
86 90 91
-92 -22
-92 23
22 -23 92
-93 22
-93 -23
-22 23 93
-94 -92
-94 -93
92 93 94
-95 22
-95 23
-22 -23 95
-96 91
-96 -94
-91 94 96
-97 -91
-97 94
91 -94 97
-98 -96
-98 -97
96 97 98
-99 -91
-99 -94
91 94 99
-100 -95
-100 -99
95 99 100
-101 -23
-101 24
23 -24 101
-102 23
-102 -24
-23 24 102
-103 -101
-103 -102
101 102 103
-104 23
-104 24
-23 -24 104
-105 100
-105 -103
-100 103 105
-106 -100
-106 103
100 -103 106
-107 -105
-107 -106
105 106 107
-108 -100
-108 -103
100 103 108
-109 -104
-109 -108
104 108 109
-110 -24
-110 25
24 -25 110
-111 24
-111 -25
-24 25 111
-112 -110
-112 -111
110 111 112
-113 24
-113 25
-24 -25 113
-114 109
-114 -112
-109 112 114
-115 -109
-115 112
109 -112 115
-116 -114
-116 -115
114 115 116
-117 -109
-117 -112
109 112 117
-118 -113
-118 -117
113 117 118
-119 -25
-119 26
25 -26 119
-120 25
-120 -26
-25 26 120
-121 -119
-121 -120
119 120 121
-122 25
-122 26
-25 -26 122
-123 118
-123 -121
-118 121 123
-124 -118
-124 121
118 -121 124
-125 -123
-125 -124
123 124 125
-126 -118
-126 -121
118 121 126
-127 -122
-127 -126
122 126 127
-128 -26
-128 27
26 -27 128
-129 26
-129 -27
-26 27 129
-130 -128
-130 -129
128 129 130
-131 26
-131 27
-26 -27 131
-132 127
-132 -130
-127 130 132
-133 -127
-133 130
127 -130 133
-134 -132
-134 -133
132 133 134
-135 -127
-135 -130
127 130 135
-136 -131
-136 -135
131 135 136
-137 -27
-137 28
27 -28 137
-138 27
-138 -28
-27 28 138
-139 -137
-139 -138
137 138 139
-140 27
-140 28
-27 -28 140
-141 136
-141 -139
-136 139 141
-142 -136
-142 139
136 -139 142
-143 -141
-143 -142
141 142 143
-144 -136
-144 -139
136 139 144
-145 -140
-145 -144
140 144 145
-146 -28
-146 29
28 -29 146
-147 28
-147 -29
-28 29 147
-148 -146
-148 -147
146 147 148
-149 28
-149 29
-28 -29 149
-150 145
-150 -148
-145 148 150
-151 -145
-151 148
145 -148 151
-152 -150
-152 -151
150 151 152
-153 -145
-153 -148
145 148 153
-154 -149
-154 -153
149 153 154
-155 -29
-155 30
29 -30 155
-156 29
-156 -30
-29 30 156
-157 -155
-157 -156
155 156 157
-158 29
-158 30
-29 -30 158
-159 154
-159 -157
-154 157 159
-160 -154
-160 157
154 -157 160
-161 -159
-161 -160
159 160 161
-162 -154
-162 -157
154 157 162
-163 -158
-163 -162
158 162 163
-164 -30
-164 31
30 -31 164
-165 30
-165 -31
-30 31 165
-166 -164
-166 -165
164 165 166
-167 30
-167 31
-30 -31 167
-168 163
-168 -166
-163 166 168
-169 -163
-169 166
163 -166 169
-170 -168
-170 -169
168 169 170
-171 -163
-171 -166
163 166 171
-172 -167
-172 -171
167 171 172
-173 -31
-173 32
31 -32 173
-174 31
-174 -32
-31 32 174
-175 -173
-175 -174
173 174 175
-176 31
-176 32
-31 -32 176
-177 172
-177 -175
-172 175 177
-178 -172
-178 175
172 -175 178
-179 -177
-179 -178
177 178 179
-180 -172
-180 -175
172 175 180
-181 -176
-181 -180
176 180 181
-182 -32
-182 33
32 -33 182
-183 32
-183 -33
-32 33 183
-184 -182
-184 -183
182 183 184
-185 32
-185 33
-32 -33 185
-186 181
-186 -184
-181 184 186
-187 -181
-187 184
181 -184 187
-188 -186
-188 -187
186 187 188
-189 -181
-189 -184
181 184 189
-190 -185
-190 -189
185 189 190
-191 -33
-191 34
33 -34 191
-192 33
-192 -34
-33 34 192
-193 -191
-193 -192
191 192 193
-194 33
-194 34
-33 -34 194
-195 190
-195 -193
-190 193 195
-196 -190
-196 193
190 -193 196
-197 -195
-197 -196
195 196 197
-198 -190
-198 -193
190 193 198
-199 -194
-199 -198
194 198 199
-200 -34
-200 35
34 -35 200
-201 34
-201 -35
-34 35 201
-202 -200
-202 -201
200 201 202
-203 34
-203 35
-34 -35 203
-204 199
-204 -202
-199 202 204
-205 -199
-205 202
199 -202 205
-206 -204
-206 -205
204 205 206
-207 -199
-207 -202
199 202 207
-208 -203
-208 -207
203 207 208
-209 -35
-209 36
35 -36 209
-210 35
-210 -36
-35 36 210
-211 -209
-211 -210
209 210 211
-212 35
-212 36
-35 -36 212
-213 208
-213 -211
-208 211 213
-214 -208
-214 211
208 -211 214
-215 -213
-215 -214
213 214 215
-216 -208
-216 -211
208 211 216
-217 -212
-217 -216
212 216 217
-218 -36
-218 37
36 -37 218
-219 36
-219 -37
-36 37 219
-220 -218
-220 -219
218 219 220
-221 36
-221 37
-36 -37 221
-222 217
-222 -220
-217 220 222
-223 -217
-223 220
217 -220 223
-224 -222
-224 -223
222 223 224
-225 -217
-225 -220
217 220 225
-226 -221
-226 -225
221 225 226
-227 -37
-227 38
37 -38 227
-228 37
-228 -38
-37 38 228
-229 -227
-229 -228
227 228 229
-230 37
-230 38
-37 -38 230
-231 226
-231 -229
-226 229 231
-232 -226
-232 229
226 -229 232
-233 -231
-233 -232
231 232 233
-234 -226
-234 -229
226 229 234
-235 -230
-235 -234
230 234 235
-236 -38
-236 39
38 -39 236
-237 38
-237 -39
-38 39 237
-238 -236
-238 -237
236 237 238
-239 38
-239 39
-38 -39 239
-240 235
-240 -238
-235 238 240
-241 -235
-241 238
235 -238 241
-242 -240
-242 -241
240 241 242
-243 -235
-243 -238
235 238 243
-244 -239
-244 -243
239 243 244
-245 -39
-245 40
39 -40 245
-246 39
-246 -40
-39 40 246
-247 -245
-247 -246
245 246 247
-248 39
-248 40
-39 -40 248
-249 244
-249 -247
-244 247 249
-250 -244
-250 247
244 -247 250
-251 -249
-251 -250
249 250 251
-252 -244
-252 -247
244 247 252
-253 -248
-253 -252
248 252 253
-254 -40
-254 41
40 -41 254
-255 40
-255 -41
-40 41 255
-256 -254
-256 -255
254 255 256
-257 40
-257 41
-40 -41 257
-258 253
-258 -256
-253 256 258
-259 -253
-259 256
253 -256 259
-260 -258
-260 -259
258 259 260
-261 -253
-261 -256
253 256 261
-262 -257
-262 -261
257 261 262
-263 -41
-263 42
41 -42 263
-264 41
-264 -42
-41 42 264
-265 -263
-265 -264
263 264 265
-266 41
-266 42
-41 -42 266
-267 262
-267 -265
-262 265 267
-268 -262
-268 265
262 -265 268
-269 -267
-269 -268
267 268 269
-270 -262
-270 -265
262 265 270
-271 -266
-271 -270
266 270 271
-272 -42
-272 43
42 -43 272
-273 42
-273 -43
-42 43 273
-274 -272
-274 -273
272 273 274
-275 42
-275 43
-42 -43 275
-276 271
-276 -274
-271 274 276
-277 -271
-277 274
271 -274 277
-278 -276
-278 -277
276 277 278
-279 -271
-279 -274
271 274 279
-280 -275
-280 -279
275 279 280
-281 -43
-281 44
43 -44 281
-282 43
-282 -44
-43 44 282
-283 -281
-283 -282
281 282 283
-284 43
-284 44
-43 -44 284
-285 280
-285 -283
-280 283 285
-286 -280
-286 283
280 -283 286
-287 -285
-287 -286
285 286 287
-288 -280
-288 -283
280 283 288
-289 -284
-289 -288
284 288 289
-290 -44
-290 45
44 -45 290
-291 44
-291 -45
-44 45 291
-292 -290
-292 -291
290 291 292
-293 44
-293 45
-44 -45 293
-294 289
-294 -292
-289 292 294
-295 -289
-295 292
289 -292 295
-296 -294
-296 -295
294 295 296
-297 -289
-297 -292
289 292 297
-298 -293
-298 -297
293 297 298
-299 -45
-299 46
45 -46 299
-300 45
-300 -46
-45 46 300
-301 -299
-301 -300
299 300 301
-302 45
-302 46
-45 -46 302
-303 298
-303 -301
-298 301 303
-304 -298
-304 301
298 -301 304
-305 -303
-305 -304
303 304 305
-306 -298
-306 -301
298 301 306
-307 -302
-307 -306
302 306 307
-308 -46
-308 47
46 -47 308
-309 46
-309 -47
-46 47 309
-310 -308
-310 -309
308 309 310
-311 46
-311 47
-46 -47 311
-312 307
-312 -310
-307 310 312
-313 -307
-313 310
307 -310 313
-314 -312
-314 -313
312 313 314
-315 -307
-315 -310
307 310 315
-316 -311
-316 -315
311 315 316
-317 -47
-317 48
47 -48 317
-318 47
-318 -48
-47 48 318
-319 -317
-319 -318
317 318 319
-320 47
-320 48
-47 -48 320
-321 316
-321 -319
-316 319 321
-322 -316
-322 319
316 -319 322
-323 -321
-323 -322
321 322 323
-324 -316
-324 -319
316 319 324
-325 -320
-325 -324
320 324 325
-326 -48
-326 49
48 -49 326
-327 48
-327 -49
-48 49 327
-328 -326
-328 -327
326 327 328
-329 48
-329 49
-48 -49 329
-330 325
-330 -328
-325 328 330
-331 -325
-331 328
325 -328 331
-332 -330
-332 -331
330 331 332
-333 -325
-333 -328
325 328 333
-334 -329
-334 -333
329 333 334
-335 -49
-335 50
49 -50 335
-336 49
-336 -50
-49 50 336
-337 -335
-337 -336
335 336 337
-338 49
-338 50
-49 -50 338
-339 334
-339 -337
-334 337 339
-340 -334
-340 337
334 -337 340
-341 -339
-341 -340
339 340 341
-342 -334
-342 -337
334 337 342
-343 -338
-343 -342
338 342 343
-344 -50
-344 51
50 -51 344
-345 50
-345 -51
-50 51 345
-346 -344
-346 -345
344 345 346
-347 50
-347 51
-50 -51 347
-348 343
-348 -346
-343 346 348
-349 -343
-349 346
343 -346 349
-350 -348
-350 -349
348 349 350
-351 -343
-351 -346
343 346 351
-352 -347
-352 -351
347 351 352
-353 -51
-353 52
51 -52 353
-354 51
-354 -52
-51 52 354
-355 -353
-355 -354
353 354 355
-356 51
-356 52
-51 -52 356
-357 352
-357 -355
-352 355 357
-358 -352
-358 355
352 -355 358
-359 -357
-359 -358
357 358 359
-360 -352
-360 -355
352 355 360
-361 -356
-361 -360
356 360 361
-362 21
-362 -89
-21 89 362
-363 -21
-363 23
21 -23 363
-364 -362
-364 -363
362 363 364
-365 21
-365 -98
-21 98 365
-366 -21
-366 24
21 -24 366
-367 -365
-367 -366
365 366 367
-368 21
-368 -107
-21 107 368
-369 -21
-369 25
21 -25 369
-370 -368
-370 -369
368 369 370
-371 21
-371 -116
-21 116 371
-372 -21
-372 26
21 -26 372
-373 -371
-373 -372
371 372 373
-374 21
-374 -125
-21 125 374
-375 -21
-375 27
21 -27 375
-376 -374
-376 -375
374 375 376
-377 21
-377 -134
-21 134 377
-378 -21
-378 28
21 -28 378
-379 -377
-379 -378
377 378 379
-380 21
-380 -143
-21 143 380
-381 -21
-381 29
21 -29 381
-382 -380
-382 -381
380 381 382
-383 21
-383 -152
-21 152 383
-384 -21
-384 30
21 -30 384
-385 -383
-385 -384
383 384 385
-386 21
-386 -161
-21 161 386
-387 -21
-387 31
21 -31 387
-388 -386
-388 -387
386 387 388
-389 21
-389 -170
-21 170 389
-390 -21
-390 32
21 -32 390
-391 -389
-391 -390
389 390 391
-392 21
-392 -179
-21 179 392
-393 -21
-393 33
21 -33 393
-394 -392
-394 -393
392 393 394
-395 21
-395 -188
-21 188 395
-396 -21
-396 34
21 -34 396
-397 -395
-397 -396
395 396 397
-398 21
-398 -197
-21 197 398
-399 -21
-399 35
21 -35 399
-400 -398
-400 -399
398 399 400
-401 21
-401 -206
-21 206 401
-402 -21
-402 36
21 -36 402
-403 -401
-403 -402
401 402 403
-404 21
-404 -215
-21 215 404
-405 -21
-405 37
21 -37 405
-406 -404
-406 -405
404 405 406
-407 21
-407 -224
-21 224 407
-408 -21
-408 38
21 -38 408
-409 -407
-409 -408
407 408 409
-410 21
-410 -233
-21 233 410
-411 -21
-411 39
21 -39 411
-412 -410
-412 -411
410 411 412
-413 21
-413 -242
-21 242 413
-414 -21
-414 40
21 -40 414
-415 -413
-415 -414
413 414 415
-416 21
-416 -251
-21 251 416
-417 -21
-417 41
21 -41 417
-418 -416
-418 -417
416 417 418
-419 21
-419 -260
-21 260 419
-420 -21
-420 42
21 -42 420
-421 -419
-421 -420
419 420 421
-422 21
-422 -269
-21 269 422
-423 -21
-423 43
21 -43 423
-424 -422
-424 -423
422 423 424
-425 21
-425 -278
-21 278 425
-426 -21
-426 44
21 -44 426
-427 -425
-427 -426
425 426 427
-428 21
-428 -287
-21 287 428
-429 -21
-429 45
21 -45 429
-430 -428
-430 -429
428 429 430
-431 21
-431 -296
-21 296 431
-432 -21
-432 46
21 -46 432
-433 -431
-433 -432
431 432 433
-434 21
-434 -305
-21 305 434
-435 -21
-435 47
21 -47 435
-436 -434
-436 -435
434 435 436
-437 21
-437 -314
-21 314 437
-438 -21
-438 48
21 -48 438
-439 -437
-439 -438
437 438 439
-440 21
-440 -323
-21 323 440
-441 -21
-441 49
21 -49 441
-442 -440
-442 -441
440 441 442
-443 21
-443 -332
-21 332 443
-444 -21
-444 50
21 -50 444
-445 -443
-445 -444
443 444 445
-446 21
-446 -341
-21 341 446
-447 -21
-447 51
21 -51 447
-448 -446
-448 -447
446 447 448
-449 21
-449 -350
-21 350 449
-450 -21
-450 52
21 -52 450
-451 -449
-451 -450
449 450 451
-452 21
-452 -359
-21 359 452
-453 1
-453 82
-1 -82 453
-454 -82
-454 83
82 -83 454
-455 -453
-455 -454
453 454 455
-456 2
-456 82
-2 -82 456
-457 -82
-457 -364
82 364 457
-458 -456
-458 -457
456 457 458
-459 3
-459 82
-3 -82 459
-460 -82
-460 -367
82 367 460
-461 -459
-461 -460
459 460 461
-462 4
-462 82
-4 -82 462
-463 -82
-463 -370
82 370 463
-464 -462
-464 -463
462 463 464
-465 5
-465 82
-5 -82 465
-466 -82
-466 -373
82 373 466
-467 -465
-467 -466
465 466 467
-468 6
-468 82
-6 -82 468
-469 -82
-469 -376
82 376 469
-470 -468
-470 -469
468 469 470
-471 7
-471 82
-7 -82 471
-472 -82
-472 -379
82 379 472
-473 -471
-473 -472
471 472 473
-474 8
-474 82
-8 -82 474
-475 -82
-475 -382
82 382 475
-476 -474
-476 -475
474 475 476
-477 9
-477 82
-9 -82 477
-478 -82
-478 -385
82 385 478
-479 -477
-479 -478
477 478 479
-480 10
-480 82
-10 -82 480
-481 -82
-481 -388
82 388 481
-482 -480
-482 -481
480 481 482
-483 11
-483 82
-11 -82 483
-484 -82
-484 -391
82 391 484
-485 -483
-485 -484
483 484 485
-486 12
-486 82
-12 -82 486
-487 -82
-487 -394
82 394 487
-488 -486
-488 -487
486 487 488
-489 13
-489 82
-13 -82 489
-490 -82
-490 -397
82 397 490
-491 -489
-491 -490
489 490 491
-492 14
-492 82
-14 -82 492
-493 -82
-493 -400
82 400 493
-494 -492
-494 -493
492 493 494
-495 15
-495 82
-15 -82 495
-496 -82
-496 -403
82 403 496
-497 -495
-497 -496
495 496 497
-498 16
-498 82
-16 -82 498
-499 -82
-499 -406
82 406 499
-500 -498
-500 -499
498 499 500
-501 17
-501 82
-17 -82 501
-502 -82
-502 -409
82 409 502
-503 -501
-503 -502
501 502 503
-504 18
-504 82
-18 -82 504
-505 -82
-505 -412
82 412 505
-506 -504
-506 -505
504 505 506
-507 19
-507 82
-19 -82 507
-508 -82
-508 -415
82 415 508
-509 -507
-509 -508
507 508 509
-510 20
-510 82
-20 -82 510
-511 -82
-511 -418
82 418 511
-512 -510
-512 -511
510 511 512
-513 -82
-513 -421
82 421 513
-514 -82
-514 -424
82 424 514
-515 -82
-515 -427
82 427 515
-516 -82
-516 -430
82 430 516
-517 -82
-517 -433
82 433 517
-518 -82
-518 -436
82 436 518
-519 -82
-519 -439
82 439 519
-520 -82
-520 -442
82 442 520
-521 -82
-521 -445
82 445 521
-522 -82
-522 -448
82 448 522
-523 -82
-523 -451
82 451 523
-524 -82
-524 452
82 -452 524
-525 -52
-525 361
52 -361 525
-526 21
-526 -525
-21 525 526
526
